n_res = 4;
rcap = [8, 13, 73, 52];
rtype = [1, 1, 2, 2];
n_tasks = 10;
modes = [ {1, 2, 3}, {4, 5, 6}, {7, 8, 9}, {10, 11, 12}, {13, 14, 15}, {16, 17, 18}, {19, 20, 21}, {22, 23, 24}, {25, 26, 27}, {28, 29, 30} ];
succ = [ {8}, {4, 10}, {4, 7}, {5, 6}, {8, 9}, {9}, {8, 10}, {}, {}, {} ];
n_opt = 30;
dur = [3, 5, 9, 4, 5, 7, 4, 7, 8, 1, 3, 9, 1, 3, 4, 4, 6, 10, 3, 9, 10, 2, 8, 9, 3, 4, 9, 3, 8, 8];
rreq = [|  4,  4,  3,  4,  3,  2,  6,  4,  2,  7,  4,  3,  9,  6,  3,  8,  6,  6,  1,  1,  1,  5,  4,  3,  8,  6,  5,  5,  4,  5
        |  9,  9,  9, 10, 10,  9, 10, 10,  9,  4,  4,  3,  7,  7,  5,  9,  8,  7,  6,  6,  2,  7,  6,  6,  9,  7,  6,  7,  6,  4
        |  0,  9,  0,  6,  0,  4,  6,  0,  0,  0,  9,  9,  0,  7,  0,  0,  9,  0,  0,  4,  0,  0,  7,  4,  8,  0,  7,  0,  0,  8
        |  8,  0,  7,  0,  6,  0,  0,  4,  3,  5,  0,  0,  6,  0,  6,  6,  0,  6,  7,  0,  7,  2,  0,  0,  0,  3,  0,  5,  4,  0 |];
